14° run output:
{
    "Function": "kroA500.tsp",
    "Problem dimension": [
        60,
        209,
        7,
        97,
        245,
        23,
        484,
        108,
        413,
        475,
        244,
        167,
        465,
        336,
        348,
        149,
        119,
        22,
        153,
        310,
        54,
        277,
        466,
        334,
        392,
        12,
        398,
        258,
        384,
        98,
        183,
        178,
        103,
        243,
        237,
        197,
        268,
        19,
        429,
        134,
        370,
        267,
        159,
        202,
        213,
        487,
        407,
        59,
        14,
        447,
        285,
        276,
        326,
        439,
        335,
        388,
        354,
        341,
        96,
        457,
        241,
        101,
        157,
        227,
        195,
        460,
        412,
        18,
        171,
        420,
        263,
        344,
        339,
        26,
        123,
        482,
        377,
        337,
        391,
        477,
        181,
        493,
        192,
        126,
        41,
        100,
        306,
        366,
        38,
        76,
        2,
        77,
        238,
        85,
        140,
        455,
        206,
        220,
        188,
        32,
        314,
        170,
        281,
        61,
        458,
        49,
        271,
        491,
        387,
        226,
        125,
        448,
        374,
        234,
        45,
        485,
        207,
        464,
        349,
        122,
        58,
        287,
        324,
        399,
        295,
        1,
        311,
        403,
        74,
        451,
        109,
        21,
        270,
        375,
        355,
        283,
        302,
        417,
        333,
        395,
        400,
        462,
        461,
        488,
        138,
        345,
        480,
        418,
        28,
        161,
        371,
        112,
        148,
        426,
        479,
        99,
        73,
        191,
        52,
        397,
        235,
        132,
        233,
        394,
        121,
        190,
        236,
        194,
        266,
        486,
        131,
        340,
        303,
        410,
        216,
        450,
        499,
        27,
        483,
        304,
        70,
        494,
        249,
        86,
        111,
        452,
        89,
        253,
        250,
        105,
        278,
        212,
        120,
        286,
        433,
        292,
        416,
        198,
        230,
        401,
        320,
        94,
        430,
        282,
        80,
        95,
        356,
        476,
        43,
        210,
        129,
        432,
        497,
        363,
        293,
        438,
        280,
        322,
        386,
        290,
        442,
        35,
        0,
        113,
        409,
        330,
        300,
        187,
        5,
        396,
        13,
        81,
        51,
        428,
        92,
        443,
        246,
        156,
        33,
        217,
        469,
        193,
        186,
        222,
        160,
        106,
        470,
        65,
        289,
        319,
        453,
        358,
        75,
        203,
        444,
        231,
        204,
        449,
        440,
        368,
        150,
        456,
        110,
        211,
        478,
        93,
        31,
        128,
        496,
        331,
        406,
        137,
        62,
        200,
        328,
        463,
        260,
        415,
        164,
        431,
        365,
        37,
        169,
        8,
        262,
        495,
        318,
        436,
        492,
        151,
        240,
        471,
        215,
        185,
        414,
        87,
        372,
        338,
        177,
        180,
        269,
        141,
        402,
        165,
        56,
        25,
        71,
        376,
        208,
        224,
        168,
        323,
        434,
        427,
        48,
        332,
        196,
        367,
        297,
        147,
        360,
        158,
        404,
        247,
        104,
        305,
        20,
        205,
        251,
        16,
        225,
        342,
        419,
        4,
        42,
        116,
        242,
        481,
        254,
        182,
        359,
        11,
        490,
        474,
        176,
        361,
        143,
        142,
        411,
        63,
        350,
        72,
        47,
        294,
        321,
        79,
        298,
        351,
        67,
        441,
        199,
        66,
        53,
        317,
        228,
        184,
        299,
        408,
        173,
        468,
        316,
        424,
        273,
        390,
        445,
        389,
        88,
        255,
        498,
        114,
        9,
        274,
        24,
        467,
        232,
        174,
        10,
        315,
        55,
        265,
        34,
        163,
        64,
        223,
        362,
        296,
        489,
        291,
        272,
        127,
        327,
        259,
        78,
        139,
        6,
        118,
        257,
        57,
        107,
        312,
        130,
        154,
        379,
        172,
        221,
        383,
        229,
        68,
        459,
        155,
        146,
        144,
        124,
        239,
        189,
        44,
        17,
        343,
        347,
        3,
        179,
        313,
        288,
        135,
        115,
        284,
        82,
        422,
        36,
        29,
        30,
        325,
        425,
        373,
        166,
        405,
        309,
        307,
        301,
        90,
        219,
        175,
        46,
        91,
        117,
        15,
        421,
        381,
        248,
        435,
        40,
        84,
        385,
        50,
        364,
        264,
        133,
        357,
        214,
        102,
        393,
        380,
        136,
        201,
        69,
        162,
        346,
        261,
        252,
        275,
        446,
        39,
        83,
        352,
        369,
        423,
        256,
        279,
        329,
        454,
        152,
        218,
        378,
        308,
        382,
        473,
        353,
        145,
        437,
        472
    ],
    "Global Optimum": 0,
    "Algorithm": "Genetic algorithm",
    "Parameters": {
        "population": 30,
        "offspring": 30,
        "mutation probability": 0.002,
        "crossover probability": 0.9
    },
    "Fitness": 665636,
    "Solution": [
        60,
        209,
        7,
        97,
        245,
        23,
        484,
        108,
        413,
        475,
        244,
        167,
        465,
        336,
        348,
        149,
        119,
        22,
        153,
        310,
        54,
        277,
        466,
        334,
        392,
        12,
        398,
        258,
        384,
        98,
        183,
        178,
        103,
        243,
        237,
        197,
        268,
        19,
        429,
        134,
        370,
        267,
        159,
        202,
        213,
        487,
        407,
        59,
        14,
        447,
        285,
        276,
        326,
        439,
        335,
        388,
        354,
        341,
        96,
        457,
        241,
        101,
        157,
        227,
        195,
        460,
        412,
        18,
        171,
        420,
        263,
        344,
        339,
        26,
        123,
        482,
        377,
        337,
        391,
        477,
        181,
        493,
        192,
        126,
        41,
        100,
        306,
        366,
        38,
        76,
        2,
        77,
        238,
        85,
        140,
        455,
        206,
        220,
        188,
        32,
        314,
        170,
        281,
        61,
        458,
        49,
        271,
        491,
        387,
        226,
        125,
        448,
        374,
        234,
        45,
        485,
        207,
        464,
        349,
        122,
        58,
        287,
        324,
        399,
        295,
        1,
        311,
        403,
        74,
        451,
        109,
        21,
        270,
        375,
        355,
        283,
        302,
        417,
        333,
        395,
        400,
        462,
        461,
        488,
        138,
        345,
        480,
        418,
        28,
        161,
        371,
        112,
        148,
        426,
        479,
        99,
        73,
        191,
        52,
        397,
        235,
        132,
        233,
        394,
        121,
        190,
        236,
        194,
        266,
        486,
        131,
        340,
        303,
        410,
        216,
        450,
        499,
        27,
        483,
        304,
        70,
        494,
        249,
        86,
        111,
        452,
        89,
        253,
        250,
        105,
        278,
        212,
        120,
        286,
        433,
        292,
        416,
        198,
        230,
        401,
        320,
        94,
        430,
        282,
        80,
        95,
        356,
        476,
        43,
        210,
        129,
        432,
        497,
        363,
        293,
        438,
        280,
        322,
        386,
        290,
        442,
        35,
        0,
        113,
        409,
        330,
        300,
        187,
        5,
        396,
        13,
        81,
        51,
        428,
        92,
        443,
        246,
        156,
        33,
        217,
        469,
        193,
        186,
        222,
        160,
        106,
        470,
        65,
        289,
        319,
        453,
        358,
        75,
        203,
        444,
        231,
        204,
        449,
        440,
        368,
        150,
        456,
        110,
        211,
        478,
        93,
        31,
        128,
        496,
        331,
        406,
        137,
        62,
        200,
        328,
        463,
        260,
        415,
        164,
        431,
        365,
        37,
        169,
        8,
        262,
        495,
        318,
        436,
        492,
        151,
        240,
        471,
        215,
        185,
        414,
        87,
        372,
        338,
        177,
        180,
        269,
        141,
        402,
        165,
        56,
        25,
        71,
        376,
        208,
        224,
        168,
        323,
        434,
        427,
        48,
        332,
        196,
        367,
        297,
        147,
        360,
        158,
        404,
        247,
        104,
        305,
        20,
        205,
        251,
        16,
        225,
        342,
        419,
        4,
        42,
        116,
        242,
        481,
        254,
        182,
        359,
        11,
        490,
        474,
        176,
        361,
        143,
        142,
        411,
        63,
        350,
        72,
        47,
        294,
        321,
        79,
        298,
        351,
        67,
        441,
        199,
        66,
        53,
        317,
        228,
        184,
        299,
        408,
        173,
        468,
        316,
        424,
        273,
        390,
        445,
        389,
        88,
        255,
        498,
        114,
        9,
        274,
        24,
        467,
        232,
        174,
        10,
        315,
        55,
        265,
        34,
        163,
        64,
        223,
        362,
        296,
        489,
        291,
        272,
        127,
        327,
        259,
        78,
        139,
        6,
        118,
        257,
        57,
        107,
        312,
        130,
        154,
        379,
        172,
        221,
        383,
        229,
        68,
        459,
        155,
        146,
        144,
        124,
        239,
        189,
        44,
        17,
        343,
        347,
        3,
        179,
        313,
        288,
        135,
        115,
        284,
        82,
        422,
        36,
        29,
        30,
        325,
        425,
        373,
        166,
        405,
        309,
        307,
        301,
        90,
        219,
        175,
        46,
        91,
        117,
        15,
        421,
        381,
        248,
        435,
        40,
        84,
        385,
        50,
        364,
        264,
        133,
        357,
        214,
        102,
        393,
        380,
        136,
        201,
        69,
        162,
        346,
        261,
        252,
        275,
        446,
        39,
        83,
        352,
        369,
        423,
        256,
        279,
        329,
        454,
        152,
        218,
        378,
        308,
        382,
        473,
        353,
        145,
        437,
        472
    ],
    "Nb of functions evaluations": 50010,
    "Computational time in seconds": 363.10404419898987,
    "Stopping criterion in evaluations": 50000
}